number of jobs, number of machines, initial seed, upper bound and lower bound :
20           10   0000        0000        0000
processing times :
 49 65 43 15 49 17 73 52 91 37 63 12 9 68 81 82 74 22 73 99
 18 57 8 75 25 67 17 40 47 89 15 16 60 54 15 90 82 35 90 96
 25 56 42 86 80 7 7 5 71 82 25 7 31 58 44 25 5 5 92 36
 10 88 19 16 53 54 79 99 11 41 43 24 29 55 5 50 51 91 96 93
 30 8 47 37 43 66 57 64 13 58 59 47 54 1 14 35 93 87 98 32
 79 60 14 59 66 35 75 27 39 84 6 29 19 70 88 25 11 87 98 17
 91 54 21 78 30 88 33 77 67 9 69 28 40 73 8 42 40 9 20 68
 30 87 44 23 99 57 56 62 37 86 30 1 33 6 11 39 23 9 11 77
 79 8 77 78 44 37 26 62 94 76 83 74 75 76 67 30 38 21 37 52
 24 94 4 36 81 1 25 96 15 33 43 81 93 26 93 95 53 50 79 41
